(set-option :produce-models true); benchmark generated from python API
(set-info :status unknown)
(declare-fun l_0_0_8 () Real)
(declare-fun l_0_0_7 () Real)
(declare-fun l_0_0_2 () Real)
(declare-fun l_0_0_1 () Real)
(declare-fun _a_0_ () Real)
(declare-fun _a_1_ () Real)
(declare-fun l_0_0_6 () Real)
(declare-fun l_0_0_5 () Real)
(declare-fun l_0_0_4 () Real)
(declare-fun l_0_0_12 () Real)
(declare-fun l_0_0_11 () Real)
(declare-fun l_0_0_10 () Real)
(declare-fun _a_2_ () Real)
(declare-fun l_0_0_3 () Real)
(declare-fun l_0_0_9 () Real)
(declare-fun _a_3_ () Real)
(declare-fun _a_4_ () Real)
(declare-fun _a_5_ () Real)
(declare-fun l_0_1_7 () Real)
(declare-fun l_0_1_13 () Real)
(declare-fun l_0_1_1 () Real)
(declare-fun l_0_1_8 () Real)
(declare-fun l_0_1_14 () Real)
(declare-fun l_0_1_2 () Real)
(declare-fun l_0_1_18 () Real)
(declare-fun l_0_1_17 () Real)
(declare-fun l_0_1_16 () Real)
(declare-fun l_0_1_12 () Real)
(declare-fun l_0_1_11 () Real)
(declare-fun l_0_1_10 () Real)
(declare-fun l_0_1_4 () Real)
(declare-fun l_0_1_6 () Real)
(declare-fun l_0_1_5 () Real)
(declare-fun l_0_1_9 () Real)
(declare-fun l_0_1_15 () Real)
(declare-fun l_0_1_3 () Real)
(declare-fun l_0_2_17 () Real)
(declare-fun l_0_2_15 () Real)
(declare-fun l_0_2_16 () Real)
(declare-fun l_0_2_14 () Real)
(declare-fun l_0_2_9 () Real)
(declare-fun l_0_2_11 () Real)
(declare-fun l_0_2_8 () Real)
(declare-fun l_0_2_10 () Real)
(declare-fun l_0_2_2 () Real)
(declare-fun l_0_2_1 () Real)
(declare-fun l_0_2_5 () Real)
(declare-fun l_0_2_3 () Real)
(declare-fun l_0_2_4 () Real)
(declare-fun l_0_2_7 () Real)
(declare-fun l_0_2_13 () Real)
(declare-fun l_0_2_12 () Real)
(declare-fun l_0_2_6 () Real)
(declare-fun l_0_2_18 () Real)
(assert
 (let ((?x65 (- (- _a_0_ (* (* 2.0 l_0_0_1) l_0_0_2)) (* (* 2.0 l_0_0_7) l_0_0_8))))
 (= ?x65 0.0)))
(assert
 (let ((?x105 (* l_0_0_7 l_0_0_7)))
 (= (- (- _a_1_ (* (* 1.0 l_0_0_1) l_0_0_1)) ?x105) 0.0)))
(assert
 (let ((?x120 (* l_0_0_12 l_0_0_12)))
 (let ((?x118 (* l_0_0_11 l_0_0_11)))
 (let ((?x119 (- (- (+ _a_2_ (* l_0_0_1 l_0_0_1)) (* l_0_0_10 l_0_0_10)) ?x118)))
 (let ((?x127 (- (- (- ?x119 ?x120) (* (* 1.0 l_0_0_4) l_0_0_4)) (* (* 1.0 l_0_0_5) l_0_0_5))))
 (= (- ?x127 (* (* 1.0 l_0_0_6) l_0_0_6)) 0.0))))))
(assert
 (let ((?x164 (* (* 2.0 l_0_0_3) l_0_0_5)))
 (let ((?x161 (* (* 2.0 l_0_0_2) l_0_0_4)))
 (let ((?x159 (- (- _a_3_ (* (* 2.0 l_0_0_10) l_0_0_8)) (* (* 2.0 l_0_0_11) l_0_0_9))))
 (= (- (- ?x159 ?x161) ?x164) 0.0)))))
(assert
 (let ((?x201 (* l_0_0_9 l_0_0_9)))
 (let ((?x199 (* l_0_0_8 l_0_0_8)))
 (let ((?x108 (* l_0_0_1 l_0_0_1)))
 (let ((?x192 (+ _a_4_ ?x108)))
 (let ((?x198 (- (- ?x192 (* (* 1.0 l_0_0_2) l_0_0_2)) (* (* 1.0 l_0_0_3) l_0_0_3))))
 (= (- (- ?x198 ?x199) ?x201) 0.0)))))))
(assert
 (let ((?x222 (- (- _a_5_ (* (* 2.0 l_0_0_1) l_0_0_4)) (* (* 2.0 l_0_0_10) l_0_0_7))))
 (= ?x222 0.0)))
(assert
 (let ((?x60 (* 2.0 l_0_0_1)))
 (let ((?x61 (* ?x60 l_0_0_2)))
 (= ?x61 0.0))))
(assert
 (let ((?x60 (* 2.0 l_0_0_1)))
 (let ((?x219 (* ?x60 l_0_0_4)))
 (= ?x219 0.0))))
(assert
 (let ((?x149 (* l_0_0_6 l_0_0_6)))
 (let ((?x145 (* l_0_0_5 l_0_0_5)))
 (let ((?x141 (* l_0_0_4 l_0_0_4)))
 (let ((?x208 (* l_0_0_3 l_0_0_3)))
 (let ((?x204 (* l_0_0_2 l_0_0_2)))
 (let ((?x241 (+ ?x204 ?x208)))
 (= (+ (+ (+ ?x241 ?x141) ?x145) ?x149) 0.0))))))))
(assert
 (let ((?x164 (* (* 2.0 l_0_0_3) l_0_0_5)))
 (let ((?x161 (* (* 2.0 l_0_0_2) l_0_0_4)))
 (= (+ ?x161 ?x164) 0.0))))
(assert
 (let ((?x149 (* l_0_0_6 l_0_0_6)))
 (= (+ (+ (* l_0_0_4 l_0_0_4) (* l_0_0_5 l_0_0_5)) ?x149) 0.0)))
(assert
 (let ((?x60 (* 2.0 l_0_0_1)))
 (let ((?x61 (* ?x60 l_0_0_2)))
 (= ?x61 0.0))))
(assert
 (let ((?x60 (* 2.0 l_0_0_1)))
 (let ((?x219 (* ?x60 l_0_0_4)))
 (= ?x219 0.0))))
(assert
 (let ((?x208 (* l_0_0_3 l_0_0_3)))
 (let ((?x204 (* l_0_0_2 l_0_0_2)))
 (let ((?x241 (+ ?x204 ?x208)))
 (= ?x241 0.0)))))
(assert
 (let ((?x164 (* (* 2.0 l_0_0_3) l_0_0_5)))
 (let ((?x161 (* (* 2.0 l_0_0_2) l_0_0_4)))
 (= (+ ?x161 ?x164) 0.0))))
(assert
 (>= l_0_0_1 0.0))
(assert
 (>= l_0_0_3 0.0))
(assert
 (>= l_0_0_6 0.0))
(assert
 (>= l_0_0_7 0.0))
(assert
 (>= l_0_0_9 0.0))
(assert
 (>= l_0_0_12 0.0))
(assert
 (let ((?x272 (+ (- (* (* (- _a_1_) l_0_1_1) l_0_1_1) (* l_0_1_13 l_0_1_13)) (* 3.0 (* l_0_1_7 l_0_1_7)))))
 (= (+ ?x272 1.0) 0.0)))
(assert
 (let ((?x291 (- (* (* (- _a_0_) l_0_1_1) l_0_1_1) (* (* (* 2.0 _a_1_) l_0_1_1) l_0_1_2))))
 (let ((?x298 (+ (- ?x291 (* (* 2.0 l_0_1_13) l_0_1_14)) (* (* 6.0 l_0_1_7) l_0_1_8))))
 (= (+ ?x298 1.0) 0.0))))
(assert
 (let ((?x269 (* l_0_1_7 l_0_1_7)))
 (let ((?x347 (* l_0_1_18 l_0_1_18)))
 (let ((?x345 (* l_0_1_17 l_0_1_17)))
 (let ((?x343 (* l_0_1_16 l_0_1_16)))
 (let ((?x340 (* l_0_1_12 l_0_1_12)))
 (let ((?x341 (* 3.0 ?x340)))
 (let ((?x337 (* l_0_1_11 l_0_1_11)))
 (let ((?x338 (* 3.0 ?x337)))
 (let ((?x334 (* l_0_1_10 l_0_1_10)))
 (let ((?x335 (* 3.0 ?x334)))
 (let ((?x324 (* l_0_1_6 l_0_1_6)))
 (let ((?x325 (+ (+ (* l_0_1_4 l_0_1_4) (* l_0_1_5 l_0_1_5)) ?x324)))
 (let ((?x264 (- _a_1_)))
 (let ((?x333 (- (- (* ?x264 ?x325) (* (* _a_2_ l_0_1_1) l_0_1_1)) (* (* (* 2.0 _a_5_) l_0_1_1) l_0_1_4))))
 (let ((?x349 (- (- (- (- (+ (+ (+ ?x333 ?x335) ?x338) ?x341) ?x343) ?x345) ?x347) ?x269)))
 (= (- ?x349 (/ 1.0 5.0)) 0.0)))))))))))))))))
(assert
 (let ((?x269 (* l_0_1_7 l_0_1_7)))
 (let ((?x405 (* l_0_1_15 l_0_1_15)))
 (let ((?x403 (* l_0_1_14 l_0_1_14)))
 (let ((?x399 (- (* (* (* (- 2.0) _a_0_) l_0_1_1) l_0_1_2) (* _a_1_ (+ (* l_0_1_2 l_0_1_2) (* l_0_1_3 l_0_1_3))))))
 (let ((?x407 (- (- (- (- ?x399 (* (* _a_4_ l_0_1_1) l_0_1_1)) ?x403) ?x405) ?x269)))
 (let ((?x413 (+ (+ ?x407 (* 3.0 (* l_0_1_8 l_0_1_8))) (* 3.0 (* l_0_1_9 l_0_1_9)))))
 (= ?x413 0.0))))))))
(assert
 (let ((?x451 (+ (* (* 2.0 l_0_1_2) l_0_1_4) (* (* 2.0 l_0_1_3) l_0_1_5))))
 (let ((?x456 (- (- (* (* (* (- 2.0) _a_0_) l_0_1_1) l_0_1_4) (* _a_1_ ?x451)) (* (* _a_3_ l_0_1_1) l_0_1_1))))
 (let ((?x461 (+ (- ?x456 (* (* (* 2.0 _a_5_) l_0_1_1) l_0_1_2)) (* (* 6.0 l_0_1_10) l_0_1_8))))
 (let ((?x467 (- (+ ?x461 (* (* 6.0 l_0_1_11) l_0_1_9)) (* (* 2.0 l_0_1_14) l_0_1_16))))
 (= (- ?x467 (* (* 2.0 l_0_1_15) l_0_1_17)) 0.0))))))
(assert
 (let ((?x537 (* (* 2.0 l_0_1_7) l_0_1_8)))
 (let ((?x535 (- (* (- _a_0_) (+ (* l_0_1_2 l_0_1_2) (* l_0_1_3 l_0_1_3))) (* (* (* 2.0 _a_4_) l_0_1_1) l_0_1_2))))
 (= (- ?x535 ?x537) 0.0))))
(assert
 (let ((?x567 (* 2.0 l_0_1_10)))
 (let ((?x568 (* ?x567 l_0_1_7)))
 (let ((?x451 (+ (* (* 2.0 l_0_1_2) l_0_1_4) (* (* 2.0 l_0_1_3) l_0_1_5))))
 (let ((?x281 (- _a_0_)))
 (let ((?x564 (- (- (* ?x281 ?x451) (* (* (* 2.0 _a_3_) l_0_1_1) l_0_1_2)) (* (* (* 2.0 _a_4_) l_0_1_1) l_0_1_4))))
 (let ((?x566 (- ?x564 (* _a_5_ (+ (* l_0_1_2 l_0_1_2) (* l_0_1_3 l_0_1_3))))))
 (= (- ?x566 ?x568) 0.0))))))))
(assert
 (let ((?x537 (* (* 2.0 l_0_1_7) l_0_1_8)))
 (let ((?x451 (+ (* (* 2.0 l_0_1_2) l_0_1_4) (* (* 2.0 l_0_1_3) l_0_1_5))))
 (let ((?x324 (* l_0_1_6 l_0_1_6)))
 (let ((?x325 (+ (+ (* l_0_1_4 l_0_1_4) (* l_0_1_5 l_0_1_5)) ?x324)))
 (let ((?x281 (- _a_0_)))
 (let ((?x616 (- (- (* ?x281 ?x325) (* (* (* 2.0 _a_2_) l_0_1_1) l_0_1_2)) (* (* (* 2.0 _a_3_) l_0_1_1) l_0_1_4))))
 (= (- (- ?x616 (* _a_5_ ?x451)) ?x537) 0.0))))))))
(assert
 (let ((?x667 (- (* (* (* (- 2.0) _a_1_) l_0_1_1) l_0_1_4) (* (* _a_5_ l_0_1_1) l_0_1_1))))
 (let ((?x671 (- (+ ?x667 (* (* 6.0 l_0_1_10) l_0_1_7)) (* (* 2.0 l_0_1_13) l_0_1_16))))
 (= ?x671 0.0))))
(assert
 (let ((?x567 (* 2.0 l_0_1_10)))
 (let ((?x568 (* ?x567 l_0_1_7)))
 (let ((?x324 (* l_0_1_6 l_0_1_6)))
 (let ((?x325 (+ (+ (* l_0_1_4 l_0_1_4) (* l_0_1_5 l_0_1_5)) ?x324)))
 (let ((?x693 (- (- (* (* (* (- 2.0) _a_2_) l_0_1_1) l_0_1_4) (* _a_5_ ?x325)) ?x568)))
 (= ?x693 0.0)))))))
(assert
 (let ((?x411 (* l_0_1_9 l_0_1_9)))
 (let ((?x408 (* l_0_1_8 l_0_1_8)))
 (let ((?x340 (* l_0_1_12 l_0_1_12)))
 (let ((?x337 (* l_0_1_11 l_0_1_11)))
 (let ((?x334 (* l_0_1_10 l_0_1_10)))
 (let ((?x324 (* l_0_1_6 l_0_1_6)))
 (let ((?x325 (+ (+ (* l_0_1_4 l_0_1_4) (* l_0_1_5 l_0_1_5)) ?x324)))
 (let ((?x451 (+ (* (* 2.0 l_0_1_2) l_0_1_4) (* (* 2.0 l_0_1_3) l_0_1_5))))
 (let ((?x720 (- (* (- _a_2_) (+ (* l_0_1_2 l_0_1_2) (* l_0_1_3 l_0_1_3))) (* _a_3_ ?x451))))
 (let ((?x727 (- (- (- (- (- (- ?x720 (* _a_4_ ?x325)) ?x334) ?x337) ?x340) ?x408) ?x411)))
 (= ?x727 0.0))))))))))))
(assert
 (let ((?x790 (* (* 2.0 l_0_1_11) l_0_1_9)))
 (let ((?x567 (* 2.0 l_0_1_10)))
 (let ((?x787 (* ?x567 l_0_1_8)))
 (let ((?x324 (* l_0_1_6 l_0_1_6)))
 (let ((?x325 (+ (+ (* l_0_1_4 l_0_1_4) (* l_0_1_5 l_0_1_5)) ?x324)))
 (let ((?x451 (+ (* (* 2.0 l_0_1_2) l_0_1_4) (* (* 2.0 l_0_1_3) l_0_1_5))))
 (let ((?x717 (- _a_2_)))
 (= (- (- (- (* ?x717 ?x451) (* _a_3_ ?x325)) ?x787) ?x790) 0.0)))))))))
(assert
 (let ((?x340 (* l_0_1_12 l_0_1_12)))
 (let ((?x337 (* l_0_1_11 l_0_1_11)))
 (let ((?x334 (* l_0_1_10 l_0_1_10)))
 (let ((?x324 (* l_0_1_6 l_0_1_6)))
 (let ((?x325 (+ (+ (* l_0_1_4 l_0_1_4) (* l_0_1_5 l_0_1_5)) ?x324)))
 (let ((?x717 (- _a_2_)))
 (= (- (- (- (* ?x717 ?x325) ?x334) ?x337) ?x340) 0.0))))))))
(assert
 (let ((?x790 (* (* 2.0 l_0_1_11) l_0_1_9)))
 (let ((?x567 (* 2.0 l_0_1_10)))
 (let ((?x787 (* ?x567 l_0_1_8)))
 (let ((?x451 (+ (* (* 2.0 l_0_1_2) l_0_1_4) (* (* 2.0 l_0_1_3) l_0_1_5))))
 (let ((?x848 (- (* (- _a_3_) (+ (* l_0_1_2 l_0_1_2) (* l_0_1_3 l_0_1_3))) (* _a_4_ ?x451))))
 (= (- (- ?x848 ?x787) ?x790) 0.0)))))))
(assert
 (let ((?x411 (* l_0_1_9 l_0_1_9)))
 (let ((?x408 (* l_0_1_8 l_0_1_8)))
 (let ((?x883 (- (* (- _a_4_) (+ (* l_0_1_2 l_0_1_2) (* l_0_1_3 l_0_1_3))) ?x408)))
 (= (- ?x883 ?x411) 0.0)))))
(assert
 (>= l_0_1_1 0.0))
(assert
 (>= l_0_1_3 0.0))
(assert
 (>= l_0_1_6 0.0))
(assert
 (>= l_0_1_7 0.0))
(assert
 (>= l_0_1_9 0.0))
(assert
 (>= l_0_1_12 0.0))
(assert
 (>= l_0_1_13 0.0))
(assert
 (>= l_0_1_15 0.0))
(assert
 (>= l_0_1_18 0.0))
(assert
 (let ((?x923 (* 4.0 _a_4_)))
 (let ((?x559 (* 2.0 _a_3_)))
 (let ((?x915 (+ (* (* 2.0 l_0_2_2) l_0_2_4) (* (* 2.0 l_0_2_3) l_0_2_5))))
 (let ((?x917 (- (+ (* (* (* (- 2.0) _a_0_) l_0_2_1) l_0_2_4) (* 2.0 _a_0_)) (* _a_1_ ?x915))))
 (let ((?x927 (- (+ (- (- ?x917 (* (* _a_3_ l_0_2_1) l_0_2_1)) ?x559) ?x923) (* (* (* 2.0 _a_5_) l_0_2_1) l_0_2_2))))
 (let ((?x933 (- (- ?x927 (* (* 6.0 l_0_2_10) l_0_2_8)) (* (* 6.0 l_0_2_11) l_0_2_9))))
 (let ((?x939 (- (- ?x933 (* (* 2.0 l_0_2_14) l_0_2_16)) (* (* 2.0 l_0_2_15) l_0_2_17))))
 (= ?x939 0.0)))))))))
(assert
 (let ((?x1023 (* l_0_2_7 l_0_2_7)))
 (let ((?x1021 (* l_0_2_15 l_0_2_15)))
 (let ((?x1019 (* l_0_2_14 l_0_2_14)))
 (let ((?x532 (* 2.0 _a_4_)))
 (let ((?x1013 (* 1.0 _a_3_)))
 (let ((?x1011 (- (+ (* (* (* (- 2.0) _a_0_) l_0_2_1) l_0_2_2) _a_0_) (* _a_1_ (+ (* l_0_2_2 l_0_2_2) (* l_0_2_3 l_0_2_3))))))
 (let ((?x1018 (+ (- (- (+ ?x1011 _a_2_) ?x1013) (* (* _a_4_ l_0_2_1) l_0_2_1)) ?x532)))
 (let ((?x1027 (- (+ (- (- ?x1018 ?x1019) ?x1021) ?x1023) (* (* 3.0 l_0_2_8) l_0_2_8))))
 (= (- ?x1027 (* (* 3.0 l_0_2_9) l_0_2_9)) 0.0))))))))))
(assert
 (let ((?x1089 (* l_0_2_13 l_0_2_13)))
 (let ((?x1013 (* 1.0 _a_3_)))
 (let ((?x1081 (+ (- (* 1.0 _a_0_) (* (* _a_1_ l_0_2_1) l_0_2_1)) _a_1_)))
 (let ((?x1088 (- (+ (- (+ ?x1081 (* 1.0 _a_2_)) ?x1013) (* 1.0 _a_4_)) (* 1.0 _a_5_))))
 (= (- (- ?x1088 ?x1089) (* (* 3.0 l_0_2_7) l_0_2_7)) 0.0))))))
(assert
 (let ((?x1125 (* l_0_2_12 l_0_2_12)))
 (let ((?x1123 (* l_0_2_11 l_0_2_11)))
 (let ((?x1121 (* l_0_2_10 l_0_2_10)))
 (let ((?x1117 (* l_0_2_6 l_0_2_6)))
 (let ((?x1118 (+ (+ (* l_0_2_4 l_0_2_4) (* l_0_2_5 l_0_2_5)) ?x1117)))
 (let ((?x717 (- _a_2_)))
 (= (+ (+ (+ (+ (* ?x717 ?x1118) _a_2_) ?x1121) ?x1123) ?x1125) 0.0))))))))
(assert
 (let ((?x1148 (* (* 2.0 l_0_2_7) l_0_2_8)))
 (let ((?x915 (+ (* (* 2.0 l_0_2_2) l_0_2_4) (* (* 2.0 l_0_2_3) l_0_2_5))))
 (let ((?x611 (* 2.0 _a_2_)))
 (let ((?x1117 (* l_0_2_6 l_0_2_6)))
 (let ((?x1118 (+ (+ (* l_0_2_4 l_0_2_4) (* l_0_2_5 l_0_2_5)) ?x1117)))
 (let ((?x281 (- _a_0_)))
 (let ((?x1144 (- (+ (- (* ?x281 ?x1118) (* (* ?x611 l_0_2_1) l_0_2_2)) ?x611) (* (* (* 2.0 _a_3_) l_0_2_1) l_0_2_4))))
 (= (+ (- ?x1144 (* _a_5_ ?x915)) ?x1148) 0.0)))))))))
(assert
 (let ((?x1023 (* l_0_2_7 l_0_2_7)))
 (let ((?x1216 (* l_0_2_18 l_0_2_18)))
 (let ((?x1214 (* l_0_2_17 l_0_2_17)))
 (let ((?x1212 (* l_0_2_16 l_0_2_16)))
 (let ((?x1013 (* 1.0 _a_3_)))
 (let ((?x611 (* 2.0 _a_2_)))
 (let ((?x1117 (* l_0_2_6 l_0_2_6)))
 (let ((?x1118 (+ (+ (* l_0_2_4 l_0_2_4) (* l_0_2_5 l_0_2_5)) ?x1117)))
 (let ((?x264 (- _a_1_)))
 (let ((?x1199 (+ (- (- (* ?x264 ?x1118) (* (* _a_2_ l_0_2_1) l_0_2_1)) ?x611) ?x1013)))
 (let ((?x1205 (- (+ (- ?x1199 (* (* (* 2.0 _a_5_) l_0_2_1) l_0_2_4)) _a_5_) (* (* 3.0 l_0_2_10) l_0_2_10))))
 (let ((?x1211 (- (- ?x1205 (* (* 3.0 l_0_2_11) l_0_2_11)) (* (* 3.0 l_0_2_12) l_0_2_12))))
 (= (+ (- (- (- ?x1211 ?x1212) ?x1214) ?x1216) ?x1023) 0.0))))))))))))))
(assert
 (let ((?x1013 (* 1.0 _a_3_)))
 (let ((?x611 (* 2.0 _a_2_)))
 (let ((?x1275 (- (* (* (- _a_0_) l_0_2_1) l_0_2_1) (* (* (* 2.0 _a_1_) l_0_2_1) l_0_2_2))))
 (let ((?x1281 (- (+ (+ (- ?x1275 ?x611) ?x1013) _a_5_) (* (* 2.0 l_0_2_13) l_0_2_14))))
 (= (- ?x1281 (* (* 6.0 l_0_2_7) l_0_2_8)) 0.0))))))
(assert
 (let ((?x1318 (* (* 2.0 l_0_2_11) l_0_2_9)))
 (let ((?x1314 (* 2.0 l_0_2_10)))
 (let ((?x1315 (* ?x1314 l_0_2_8)))
 (let ((?x559 (* 2.0 _a_3_)))
 (let ((?x1117 (* l_0_2_6 l_0_2_6)))
 (let ((?x1118 (+ (+ (* l_0_2_4 l_0_2_4) (* l_0_2_5 l_0_2_5)) ?x1117)))
 (let ((?x915 (+ (* (* 2.0 l_0_2_2) l_0_2_4) (* (* 2.0 l_0_2_3) l_0_2_5))))
 (let ((?x717 (- _a_2_)))
 (= (+ (+ (+ (- (* ?x717 ?x915) (* _a_3_ ?x1118)) ?x559) ?x1315) ?x1318) 0.0))))))))))
(assert
 (let ((?x1070 (* l_0_2_9 l_0_2_9)))
 (let ((?x1064 (* l_0_2_8 l_0_2_8)))
 (let ((?x1125 (* l_0_2_12 l_0_2_12)))
 (let ((?x1123 (* l_0_2_11 l_0_2_11)))
 (let ((?x1121 (* l_0_2_10 l_0_2_10)))
 (let ((?x923 (* 4.0 _a_4_)))
 (let ((?x1117 (* l_0_2_6 l_0_2_6)))
 (let ((?x1118 (+ (+ (* l_0_2_4 l_0_2_4) (* l_0_2_5 l_0_2_5)) ?x1117)))
 (let ((?x915 (+ (* (* 2.0 l_0_2_2) l_0_2_4) (* (* 2.0 l_0_2_3) l_0_2_5))))
 (let ((?x1347 (- (* (- _a_2_) (+ (* l_0_2_2 l_0_2_2) (* l_0_2_3 l_0_2_3))) (* _a_3_ ?x915))))
 (let ((?x1354 (+ (+ (+ (+ (- (+ ?x1347 _a_3_) (* _a_4_ ?x1118)) ?x923) ?x1121) ?x1123) ?x1125)))
 (= (+ (+ ?x1354 ?x1064) ?x1070) 0.0)))))))))))))
(assert
 (let ((?x1314 (* 2.0 l_0_2_10)))
 (let ((?x1407 (* ?x1314 l_0_2_7)))
 (let ((?x559 (* 2.0 _a_3_)))
 (let ((?x915 (+ (* (* 2.0 l_0_2_2) l_0_2_4) (* (* 2.0 l_0_2_3) l_0_2_5))))
 (let ((?x281 (- _a_0_)))
 (let ((?x1404 (- (+ (- (* ?x281 ?x915) (* (* ?x559 l_0_2_1) l_0_2_2)) ?x559) (* (* (* 2.0 _a_4_) l_0_2_1) l_0_2_4))))
 (let ((?x1406 (- ?x1404 (* _a_5_ (+ (* l_0_2_2 l_0_2_2) (* l_0_2_3 l_0_2_3))))))
 (= (+ ?x1406 ?x1407) 0.0)))))))))
(assert
 (let ((?x1148 (* (* 2.0 l_0_2_7) l_0_2_8)))
 (let ((?x1446 (+ (* (- _a_0_) (+ (* l_0_2_2 l_0_2_2) (* l_0_2_3 l_0_2_3))) _a_3_)))
 (= (+ (- ?x1446 (* (* (* 2.0 _a_4_) l_0_2_1) l_0_2_2)) ?x1148) 0.0))))
(assert
 (let ((?x1318 (* (* 2.0 l_0_2_11) l_0_2_9)))
 (let ((?x1314 (* 2.0 l_0_2_10)))
 (let ((?x1315 (* ?x1314 l_0_2_8)))
 (let ((?x923 (* 4.0 _a_4_)))
 (let ((?x915 (+ (* (* 2.0 l_0_2_2) l_0_2_4) (* (* 2.0 l_0_2_3) l_0_2_5))))
 (let ((?x1468 (- (* (- _a_3_) (+ (* l_0_2_2 l_0_2_2) (* l_0_2_3 l_0_2_3))) (* _a_4_ ?x915))))
 (= (+ (+ (+ ?x1468 ?x923) ?x1315) ?x1318) 0.0))))))))
(assert
 (let ((?x1070 (* l_0_2_9 l_0_2_9)))
 (let ((?x1064 (* l_0_2_8 l_0_2_8)))
 (let ((?x1498 (+ (* (- _a_4_) (+ (* l_0_2_2 l_0_2_2) (* l_0_2_3 l_0_2_3))) _a_4_)))
 (= (+ (+ ?x1498 ?x1064) ?x1070) 0.0)))))
(assert
 (let ((?x1512 (- (* (* (* (- 2.0) _a_1_) l_0_2_1) l_0_2_4) (* (* _a_5_ l_0_2_1) l_0_2_1))))
 (let ((?x1516 (- (- ?x1512 (* (* 6.0 l_0_2_10) l_0_2_7)) (* (* 2.0 l_0_2_13) l_0_2_16))))
 (= ?x1516 0.0))))
(assert
 (let ((?x1314 (* 2.0 l_0_2_10)))
 (let ((?x1407 (* ?x1314 l_0_2_7)))
 (let ((?x1117 (* l_0_2_6 l_0_2_6)))
 (let ((?x1118 (+ (+ (* l_0_2_4 l_0_2_4) (* l_0_2_5 l_0_2_5)) ?x1117)))
 (let ((?x1542 (+ (- (* (* (* (- 2.0) _a_2_) l_0_2_1) l_0_2_4) (* _a_5_ ?x1118)) ?x1407)))
 (= ?x1542 0.0)))))))
(assert
 (>= l_0_2_1 0.0))
(assert
 (>= l_0_2_3 0.0))
(assert
 (>= l_0_2_6 0.0))
(assert
 (>= l_0_2_7 0.0))
(assert
 (>= l_0_2_9 0.0))
(assert
 (>= l_0_2_12 0.0))
(assert
 (>= l_0_2_13 0.0))
(assert
 (>= l_0_2_15 0.0))
(assert
 (>= l_0_2_18 0.0))
(check-sat)
(get-model)